876984
26,1,2,63,4,84,88,7,90,52,43,54,71,92,61,48,5,74,68,40,17,55,9,76,29,95,20,19,59,30,31,12,62,67,98,79,47,0,36,73,69,8,32,56,46,94,24,77,50,78,28,39,93,25,11,16,18,42,23,58,89,70,33,45,27,10,22,97,53,64,51,21,72,83,91,38,13,6,65,3,80,85,44,86,37,35,49,87,75,14,15,57,81,66,60,82,34,96,41
